data;


param d:= 100;
param r:=5;
param p:=0.100000;
param M:=1000;
param U:=
         1         1        7.902500e-01
         2         1        8.861756e-01
         3         1       -2.501794e-01
         4         1        8.407312e-01
         5         1        1.358321e+00
         6         1        2.422439e-01
         7         1        1.819704e-01
         8         1       -1.253347e+00
         9         1       -8.143689e-01
        10         1       -1.431376e-01
        11         1        1.807410e-01
        12         1       -3.563404e-01
        13         1       -9.927870e-01
        14         1       -2.445972e+00
        15         1        7.881732e-02
        16         1        4.839200e-01
        17         1        6.691138e-01
        18         1        1.417671e+00
        19         1        8.647906e-02
        20         1       -3.922422e-01
        21         1        6.474559e-01
        22         1        1.494374e+00
        23         1        1.536403e+00
        24         1        9.884466e-01
        25         1       -1.303521e+00
        26         1        9.636673e-01
        27         1        1.271704e-01
        28         1       -3.079941e-01
        29         1        3.023716e-01
        30         1        1.447173e+00
        31         1       -8.380372e-01
        32         1       -3.695435e-01
        33         1       -8.757170e-01
        34         1        9.728971e-01
        35         1       -1.417155e+00
        36         1        4.669049e-01
        37         1       -1.085685e-01
        38         1        7.378561e-01
        39         1        9.420977e-02
        40         1       -1.618059e-01
        41         1       -3.310238e-01
        42         1        2.243769e+00
        43         1        8.347398e-02
        44         1       -3.711408e-01
        45         1       -7.846551e-01
        46         1       -3.567640e-01
        47         1        7.417862e-01
        48         1       -1.299863e+00
        49         1       -7.900711e-01
        50         1       -9.188839e-01
        51         1       -1.703218e+00
        52         1       -1.545275e+00
        53         1        1.676563e-01
        54         1        1.364092e+00
        55         1        5.715192e-01
        56         1       -1.280459e+00
        57         1        1.257476e-01
        58         1        4.576930e-01
        59         1        6.985054e-01
        60         1       -7.559431e-01
        61         1       -4.881427e-01
        62         1        2.883206e-02
        63         1       -7.671411e-02
        64         1       -1.232648e+00
        65         1       -8.502579e-01
        66         1        1.151933e+00
        67         1       -1.292779e+00
        68         1       -4.738422e-01
        69         1        4.797785e-02
        70         1        1.459202e-01
        71         1        7.839146e-01
        72         1        1.566945e-01
        73         1        4.882231e-02
        74         1       -1.122906e+00
        75         1        2.027468e-01
        76         1        6.037818e-01
        77         1        9.098219e-01
        78         1       -1.145487e+00
        79         1       -1.171280e+00
        80         1        3.925443e-01
        81         1        6.455770e-01
        82         1        1.019044e+00
        83         1       -1.385820e+00
        84         1       -3.027444e-01
        85         1       -1.871740e-01
        86         1        8.767639e-01
        87         1        1.115838e+00
        88         1        6.128154e-03
        89         1       -7.512533e-02
        90         1       -2.295017e-01
        91         1       -9.883140e-01
        92         1        8.892527e-01
        93         1        4.098473e-01
        94         1       -1.004639e+00
        95         1        1.178310e-01
        96         1       -9.510283e-01
        97         1       -1.383323e+00
        98         1        9.317536e-01
        99         1        6.938428e-01
       100         1        1.937734e-01
         1         2       -9.504153e-01
         2         2        1.811620e+00
         3         2        1.795143e+00
         4         2       -7.642110e-01
         5         2        1.200919e-02
         6         2        2.771450e-01
         7         2        6.540893e-01
         8         2       -1.454180e+00
         9         2        1.461619e-01
        10         2        8.414460e-01
        11         2       -3.812901e-01
        12         2        1.452549e+00
        13         2        1.218621e+00
        14         2        8.616875e-01
        15         2       -8.594072e-01
        16         2       -1.044817e+00
        17         2       -8.418359e-01
        18         2       -9.768638e-01
        19         2        1.821196e+00
        20         2        1.483149e+00
        21         2       -1.082471e+00
        22         2        4.250436e-01
        23         2        2.710177e-01
        24         2       -9.431147e-02
        25         2       -2.428342e-01
        26         2        8.114580e-01
        27         2        1.452761e+00
        28         2       -9.476205e-01
        29         2       -1.345231e+00
        30         2        1.198853e+00
        31         2       -5.372741e-01
        32         2        1.432220e-01
        33         2        1.615661e+00
        34         2       -1.528718e+00
        35         2        1.779705e+00
        36         2       -5.004319e-01
        37         2        6.820588e-01
        38         2       -5.909693e-01
        39         2       -7.398768e-01
        40         2       -6.893652e-01
        41         2        8.447631e-01
        42         2       -1.574273e+00
        43         2       -2.258201e-01
        44         2       -1.124554e+00
        45         2       -5.187317e-01
        46         2        2.984983e-01
        47         2       -1.621920e+00
        48         2       -8.416011e-01
        49         2       -1.322450e+00
        50         2        1.096140e+00
        51         2       -7.316289e-01
        52         2        2.051437e-01
        53         2        7.524196e-01
        54         2        7.642177e-01
        55         2       -1.116502e-02
        56         2        1.584210e+00
        57         2       -1.918304e+00
        58         2       -7.657954e-01
        59         2        1.657779e+00
        60         2       -1.539998e+00
        61         2       -8.260877e-01
        62         2       -9.536097e-01
        63         2       -5.173007e-01
        64         2        1.626164e+00
        65         2        7.661694e-01
        66         2       -1.055798e-01
        67         2       -2.239059e+00
        68         2        5.856054e-01
        69         2        5.512480e-02
        70         2        2.285429e+00
        71         2        1.135979e-01
        72         2        3.371758e-01
        73         2        5.389856e-01
        74         2       -1.541511e-01
        75         2        1.034320e-01
        76         2       -2.357682e+00
        77         2       -2.892200e-01
        78         2        4.904548e-01
        79         2        8.353444e-02
        80         2        4.003120e-01
        81         2        8.301633e-01
        82         2        1.890078e+00
        83         2        1.035520e+00
        84         2        1.369436e+00
        85         2       -5.436288e-01
        86         2       -4.302872e-01
        87         2       -8.575145e-01
        88         2       -1.012039e+00
        89         2        1.586525e+00
        90         2        5.837172e-01
        91         2       -3.137180e-01
        92         2        5.334958e-02
        93         2       -3.435960e+00
        94         2       -1.001050e+00
        95         2       -1.542370e+00
        96         2        1.461466e+00
        97         2        5.394904e-01
        98         2        6.944487e-01
        99         2       -5.493240e-01
       100         2        2.245710e-01
         1         3       -1.471166e+00
         2         3        1.489711e-01
         3         3        7.394545e-01
         4         3        1.884159e-01
         5         3        1.421908e+00
         6         3       -1.388970e+00
         7         3       -1.505689e+00
         8         3        2.398047e-01
         9         3       -4.477445e-01
        10         3        2.784858e-01
        11         3       -2.121641e+00
        12         3        2.809813e-02
        13         3        1.994306e-01
        14         3        1.357729e-01
        15         3        3.355999e-02
        16         3        1.710842e+00
        17         3       -9.836581e-03
        18         3       -6.027052e-02
        19         3       -1.827201e+00
        20         3        2.676042e-01
        21         3        2.605294e-01
        22         3        1.327510e+00
        23         3       -1.659207e+00
        24         3       -1.668404e-01
        25         3       -2.155723e+00
        26         3       -1.283443e+00
        27         3       -3.113165e-01
        28         3        1.180638e+00
        29         3        6.797664e-01
        30         3       -6.568893e-01
        31         3       -5.793762e-02
        32         3       -9.018036e-01
        33         3        8.792520e-01
        34         3        5.537699e-01
        35         3       -3.496996e-03
        36         3        1.742663e+00
        37         3        1.310928e+00
        38         3       -3.495791e-01
        39         3        6.849920e-01
        40         3       -1.559601e+00
        41         3       -1.166856e+00
        42         3        1.324099e+00
        43         3       -2.149856e-01
        44         3       -1.841952e-01
        45         3        1.518360e+00
        46         3       -2.158458e+00
        47         3        1.443161e+00
        48         3       -8.826597e-01
        49         3       -1.833954e-02
        50         3       -1.825605e-01
        51         3       -3.789557e-01
        52         3        1.915827e-01
        53         3       -3.427003e-01
        54         3       -1.917971e+00
        55         3        3.197370e-01
        56         3       -4.176903e-01
        57         3       -1.105575e+00
        58         3        2.034836e+00
        59         3        1.073399e-01
        60         3       -2.827184e-01
        61         3       -1.620869e-01
        62         3       -2.274151e-01
        63         3       -1.779194e+00
        64         3        1.071291e+00
        65         3        7.044431e-01
        66         3       -1.289822e+00
        67         3        1.245991e-01
        68         3       -1.917037e+00
        69         3        3.959803e-01
        70         3        2.237931e-01
        71         3       -2.000143e+00
        72         3        1.599686e+00
        73         3        2.057217e-02
        74         3        3.965268e-01
        75         3        7.159656e-01
        76         3       -5.472791e-01
        77         3       -7.699584e-01
        78         3       -6.603626e-01
        79         3       -6.573137e-02
        80         3        7.544402e-01
        81         3        1.755473e+00
        82         3        3.848216e-01
        83         3        7.349726e-01
        84         3       -4.281293e-01
        85         3        9.774674e-02
        86         3       -2.249189e-01
        87         3        6.492744e-03
        88         3       -4.015931e-01
        89         3        2.964638e-01
        90         3        1.114933e+00
        91         3       -5.129250e-01
        92         3        6.406430e-01
        93         3        3.973328e-01
        94         3        1.258213e-01
        95         3       -3.748665e-01
        96         3       -7.175444e-01
        97         3        1.385779e+00
        98         3        1.788455e+00
        99         3        2.734752e-01
       100         3        1.527917e+00
         1         4       -7.087869e-01
         2         4       -8.564195e-02
         3         4        4.378598e-02
         4         4       -3.493422e-01
         5         4       -2.412199e-01
         6         4       -4.695077e-01
         7         4       -1.572771e+00
         8         4        1.123747e+00
         9         4       -8.574499e-01
        10         4       -7.487482e-02
        11         4       -3.808097e-01
        12         4        9.983496e-01
        13         4        1.383980e+00
        14         4       -4.048774e-01
        15         4        1.225425e+00
        16         4        2.209378e+00
        17         4        7.917050e-01
        18         4       -1.340608e+00
        19         4        3.667716e-01
        20         4        9.489022e-01
        21         4        1.790116e-01
        22         4       -1.044506e+00
        23         4        1.391417e-01
        24         4        8.538156e-01
        25         4       -3.965248e-01
        26         4       -5.542939e-01
        27         4       -1.265388e-01
        28         4        5.668760e-01
        29         4        1.310547e+00
        30         4       -6.102066e-01
        31         4       -1.107332e+00
        32         4        1.084786e-01
        33         4        1.064412e+00
        34         4       -4.816293e-02
        35         4        1.932094e-01
        36         4       -3.433630e-01
        37         4        1.934234e+00
        38         4       -7.946956e-01
        39         4        1.748573e-01
        40         4       -3.829290e-01
        41         4       -3.538901e-01
        42         4       -8.490169e-01
        43         4       -8.927686e-01
        44         4       -9.787562e-01
        45         4       -5.788463e-01
        46         4        2.597445e-01
        47         4        6.107879e-01
        48         4       -6.451161e-02
        49         4        1.476740e+00
        50         4       -7.798692e-01
        51         4       -3.704230e-01
        52         4       -1.208640e+00
        53         4       -6.282015e-01
        54         4       -8.241918e-01
        55         4       -1.338191e-01
        56         4        7.955185e-01
        57         4       -5.623447e-01
        58         4        1.208085e+00
        59         4        1.435144e-01
        60         4       -3.069022e+00
        61         4       -1.154448e+00
        62         4        1.165541e+00
        63         4       -1.474426e+00
        64         4        9.419021e-03
        65         4       -3.666353e-01
        66         4       -2.802478e-01
        67         4        6.473636e-01
        68         4       -1.334945e+00
        69         4       -3.106582e-01
        70         4       -1.172533e+00
        71         4        1.411001e-01
        72         4       -5.014271e-01
        73         4       -1.176006e+00
        74         4       -5.133555e-01
        75         4       -5.843378e-01
        76         4       -6.204998e-02
        77         4        1.047825e+00
        78         4       -1.811837e-01
        79         4       -3.656933e-01
        80         4        1.119010e+00
        81         4       -5.661581e-01
        82         4       -9.441345e-01
        83         4        1.079660e+00
        84         4        9.250039e-01
        85         4       -2.280941e-01
        86         4       -1.020951e+00
        87         4        7.772357e-01
        88         4        2.779298e-01
        89         4        6.047692e-01
        90         4        1.482153e+00
        91         4       -3.222492e-01
        92         4       -1.509954e-02
        93         4       -2.832363e-01
        94         4        2.766450e-01
        95         4       -1.115196e-01
        96         4        1.798303e-01
        97         4        1.657940e+00
        98         4        1.539453e+00
        99         4        4.245482e-01
       100         4        3.638686e-01
         1         5       -3.229498e-01
         2         5       -5.788683e-01
         3         5        1.932233e-01
         4         5        8.979246e-01
         5         5       -6.122065e-03
         6         5       -1.908857e-01
         7         5        1.768029e+00
         8         5       -5.221871e-01
         9         5       -1.658408e+00
        10         5        9.841579e-01
        11         5        7.089648e-01
        12         5       -5.828985e-03
        13         5       -5.066279e-01
        14         5       -9.534033e-01
        15         5       -7.709085e-01
        16         5       -3.274852e-01
        17         5        5.135164e-01
        18         5        1.404965e+00
        19         5       -2.399537e-01
        20         5        2.058440e-01
        21         5       -2.263307e-01
        22         5       -4.194464e-01
        23         5        5.451622e-01
        24         5        1.161034e+00
        25         5       -3.441593e-02
        26         5       -3.420456e-01
        27         5        1.133607e+00
        28         5       -6.885219e-01
        29         5        5.716488e-02
        30         5        2.243181e+00
        31         5        1.557760e-01
        32         5       -3.650271e-01
        33         5       -1.266974e+00
        34         5        2.686551e-01
        35         5       -1.471882e+00
        36         5        1.704331e-01
        37         5        1.992771e+00
        38         5        2.350586e-01
        39         5        2.750133e+00
        40         5       -5.548745e-01
        41         5        2.534732e-01
        42         5       -1.198379e+00
        43         5       -8.670635e-01
        44         5       -4.873386e-03
        45         5        1.073192e+00
        46         5       -5.980449e-01
        47         5       -1.465999e+00
        48         5       -2.860326e-01
        49         5        7.314137e-01
        50         5        5.579244e-02
        51         5       -1.027815e-01
        52         5        6.810536e-02
        53         5        6.292454e-01
        54         5        4.805712e-01
        55         5       -8.930071e-01
        56         5       -1.219825e+00
        57         5       -1.898035e+00
        58         5        5.465901e-01
        59         5       -1.285743e+00
        60         5        6.135920e-01
        61         5        8.606543e-02
        62         5        1.625669e-01
        63         5       -6.851765e-01
        64         5       -8.616985e-01
        65         5       -4.906936e-01
        66         5        7.737939e-01
        67         5        1.926952e-01
        68         5        4.657743e-01
        69         5        4.867514e-01
        70         5        4.781547e-02
        71         5       -1.027786e-01
        72         5        3.298013e-01
        73         5       -1.168831e+00
        74         5       -6.147514e-01
        75         5        1.613188e+00
        76         5       -4.458741e-01
        77         5        7.007210e-01
        78         5       -3.893052e-01
        79         5        6.095081e-02
        80         5       -3.710263e-01
        81         5       -9.266615e-01
        82         5        1.838971e+00
        83         5        1.932674e+00
        84         5        1.298445e+00
        85         5       -7.994805e-01
        86         5        9.942101e-01
        87         5        1.124633e-01
        88         5       -1.010536e+00
        89         5       -8.999744e-01
        90         5        3.630111e-01
        91         5       -4.487812e-02
        92         5        4.688265e-01
        93         5       -6.295065e-01
        94         5        2.693005e-02
        95         5        1.180108e+00
        96         5       -3.157365e-01
        97         5        4.603078e-01
        98         5       -1.435495e+00
        99         5       -1.228354e-03
       100         5        1.016001e+00
;

param theta:=
    1        1.040828e+00
    2       -1.753056e+00
    3       -1.193462e+00
    4       -9.679404e-01
    5       -5.220862e-01
;
param X_true:=
    1        5.099096e+00
    2       -2.046190e+00
    3       -4.433151e+00
    4        1.859242e+00
    5       -6.758407e-02
    6        1.978081e+00
    7        1.439011e+00
    8        1.434491e-01
    9        1.126311e+00
   10       -2.397786e+00
   11        3.387101e+00
   12       -3.914122e+00
   13       -4.482750e+00
   14       -3.328806e+00
   15        7.649133e-01
   16       -1.674097e+00
   17        1.149534e+00
   18        3.824095e+00
   19       -1.151691e+00
   20       -4.353624e+00
   21        2.205482e+00
   22        4.559346e-01
   23        2.684919e+00
   24       -3.934882e-02
   25        2.043515e+00
   26        1.827321e+00
   27       -2.512223e+00
   28       -2.576177e-01
   29        5.633300e-01
   30       -3.919159e-01
   31        1.129268e+00
   32        5.261356e-01
   33       -5.161985e+00
   34        2.938001e+00
   35       -4.009329e+00
   36       -4.731743e-01
   37       -5.785852e+00
   38        2.867690e+00
   39       -1.027468e+00
   40        3.561752e+00
   41       -2.226484e-01
   42        4.962360e+00
   43        2.056163e+00
   44        2.754863e+00
   45       -1.719440e+00
   46        1.742237e+00
   47        2.067202e+00
   48        1.387637e+00
   49       -2.933692e-01
   50       -1.934377e+00
   51        3.743069e-01
   52       -1.062306e+00
   53       -4.559913e-01
   54        2.915963e+00
   55        8.285878e-01
   56       -3.744609e+00
   57        6.348491e+00
   58       -2.064359e+00
   59       -1.774906e+00
   60        4.900592e+00
   61        2.206053e+00
   62        7.601033e-01
   63        4.735288e+00
   64       -4.971512e+00
   65       -2.457770e+00
   66        2.790681e+00
   67        1.703717e+00
   68        1.817096e+00
   69       -4.727151e-01
   70       -3.011718e+00
   71        2.920954e+00
   72       -2.023993e+00
   73        8.299259e-01
   74       -5.539050e-01
   75       -1.101394e+00
   76        5.707584e+00
   77        9.928338e-01
   78       -8.853058e-01
   79       -9.649454e-01
   80       -2.083021e+00
   81       -1.846674e+00
   82       -2.758268e+00
   83       -6.188955e+00
   84       -3.778096e+00
   85        1.279718e+00
   86        2.404466e+00
   87        1.845883e+00
   88        2.518392e+00
   89       -3.328794e+00
   90       -4.216949e+00
   91        4.688050e-01
   92       -1.627010e-01
   93        6.578621e+00
   94        2.772421e-01
   95        2.765717e+00
   96       -2.704749e+00
   97       -5.884539e+00
   98       -3.122711e+00
   99        9.484883e-01
  100       -2.898155e+00
;
param X:=
    1        5.099096e+00
    2       -2.046190e+00
    3       -4.433151e+00
    4        1.859242e+00
    5       -6.758407e-02
    6        1.978081e+00
    7        1.439011e+00
    8       -8.245666e-01
    9        1.126311e+00
   10       -2.397786e+00
   11        3.387101e+00
   12       -3.914122e+00
   13       -4.482750e+00
   14       -3.328806e+00
   15        7.649133e-01
   16       -1.674097e+00
   17        1.149534e+00
   18        3.824095e+00
   19       -1.151691e+00
   20       -4.353624e+00
   21        2.205482e+00
   22        4.559346e-01
   23        2.684919e+00
   24       -3.934882e-02
   25        2.043515e+00
   26        1.827321e+00
   27       -2.512223e+00
   28       -2.576177e-01
   29        5.633300e-01
   30       -9.862573e-01
   31        1.129268e+00
   32        5.261356e-01
   33       -5.161985e+00
   34        2.938001e+00
   35       -1.967072e+00
   36       -4.731743e-01
   37       -5.785852e+00
   38        2.867690e+00
   39       -1.027468e+00
   40        3.561752e+00
   41       -2.226484e-01
   42        4.962360e+00
   43        2.056163e+00
   44        2.754863e+00
   45       -1.719440e+00
   46        1.742237e+00
   47        1.101334e-02
   48        1.387637e+00
   49       -2.933692e-01
   50        1.183776e+00
   51        3.743069e-01
   52       -1.062306e+00
   53       -4.559913e-01
   54        2.915963e+00
   55        8.285878e-01
   56       -3.744609e+00
   57        6.348491e+00
   58       -2.064359e+00
   59       -1.774906e+00
   60        4.900592e+00
   61        2.206053e+00
   62        7.601033e-01
   63        4.735288e+00
   64       -4.971512e+00
   65       -2.457770e+00
   66        2.790681e+00
   67        1.567372e-01
   68        7.198714e-01
   69       -4.727151e-01
   70       -1.370653e+00
   71        2.920954e+00
   72       -2.023993e+00
   73        8.299259e-01
   74       -5.539050e-01
   75       -1.101394e+00
   76        5.707584e+00
   77        9.928338e-01
   78       -8.853058e-01
   79       -9.649454e-01
   80       -2.083021e+00
   81       -1.846674e+00
   82       -2.758268e+00
   83       -6.188955e+00
   84       -3.778096e+00
   85        1.279718e+00
   86        2.404466e+00
   87        4.876339e-01
   88        2.518392e+00
   89       -3.328794e+00
   90       -4.216949e+00
   91        4.688050e-01
   92       -3.970592e-01
   93        6.578621e+00
   94        2.772421e-01
   95        2.765717e+00
   96       -2.704749e+00
   97       -5.884539e+00
   98       -3.122711e+00
   99        9.484883e-01
  100       -2.898155e+00
;
param outliervec:=
    1    0
    2    0
    3    0
    4    0
    5    0
    6    0
    7    0
    8    1
    9    0
   10    0
   11    0
   12    0
   13    0
   14    0
   15    0
   16    0
   17    0
   18    0
   19    0
   20    0
   21    0
   22    0
   23    0
   24    0
   25    0
   26    0
   27    0
   28    0
   29    0
   30    1
   31    0
   32    0
   33    0
   34    0
   35    1
   36    0
   37    0
   38    0
   39    0
   40    0
   41    0
   42    0
   43    0
   44    0
   45    0
   46    0
   47    1
   48    0
   49    0
   50    1
   51    0
   52    0
   53    0
   54    0
   55    0
   56    0
   57    0
   58    0
   59    0
   60    0
   61    0
   62    0
   63    0
   64    0
   65    0
   66    0
   67    1
   68    1
   69    0
   70    1
   71    0
   72    0
   73    0
   74    0
   75    0
   76    0
   77    0
   78    0
   79    0
   80    0
   81    0
   82    0
   83    0
   84    0
   85    0
   86    0
   87    1
   88    0
   89    0
   90    0
   91    0
   92    1
   93    0
   94    0
   95    0
   96    0
   97    0
   98    0
   99    0
  100    0
;